unsat
(define-fun f ((x (_ BitVec 64))) (_ BitVec 64) (let ((_let_1 (shesh x))) (if0 (bvand #b0000000000000000000000000000000000000000000000000000000000000001 x) (if0 (bvand #b0000000000000000000000000000000000000000000000000000000000000001 (ehad x)) (smol x) _let_1) _let_1)))
0.02user 0.00system 0:00.02elapsed 100%CPU (0avgtext+0avgdata 25292maxresident)k
0inputs+8outputs (0major+945minor)pagefaults 0swaps
